#=======================================================
# FHI-aims file: h2cu_atoms.in
# Created using the Atomic Simulation Environment (ASE)
# Tue Oct 25 11:33:08 2022
#=======================================================
lattice_vector 7.7487589500000000 0.0000000000000000 0.0000000000000000 
lattice_vector 3.8743794800000000 6.7106221000000001 0.0000000000000000 
lattice_vector 0.0000000000000000 0.0000000000000000 50.5447253199999977 
atom 1.2914598300000000 0.7456246800000000 0.0000000000000000 Cu
    constrain_relaxation .true.
atom 3.8743794800000000 0.7456246800000000 0.0000000000000000 Cu
    constrain_relaxation .true.
atom 6.4572991300000000 0.7456246800000000 0.0000000000000000 Cu
    constrain_relaxation .true.
atom 2.5829196500000000 2.9824987100000002 0.0000000000000000 Cu
    constrain_relaxation .true.
atom 5.1658393000000000 2.9824987100000002 0.0000000000000000 Cu
    constrain_relaxation .true.
atom 7.7487589500000000 2.9824987100000002 0.0000000000000000 Cu
    constrain_relaxation .true.
atom 3.8743794800000000 5.2193727399999998 0.0000000000000000 Cu
    constrain_relaxation .true.
atom 6.4572991300000000 5.2193727399999998 0.0000000000000000 Cu
    constrain_relaxation .true.
atom 9.0402187800000000 5.2193727399999998 0.0000000000000000 Cu
    constrain_relaxation .true.
atom 7.7487589500000000 1.4912493600000001 2.1089450599999999 Cu
    constrain_relaxation .true.
atom 2.5829196500000000 1.4912493600000001 2.1089450599999999 Cu
    constrain_relaxation .true.
atom 5.1658393000000000 1.4912493600000001 2.1089450599999999 Cu
    constrain_relaxation .true.
atom 9.0402187800000000 3.7281233899999999 2.1089450599999999 Cu
    constrain_relaxation .true.
atom 3.8743794800000000 3.7281233899999999 2.1089450599999999 Cu
    constrain_relaxation .true.
atom 6.4572991300000000 3.7281233899999999 2.1089450599999999 Cu
    constrain_relaxation .true.
atom 10.3316786000000000 5.9649974200000004 2.1089450599999999 Cu
    constrain_relaxation .true.
atom 5.1658393000000000 5.9649974200000004 2.1089450599999999 Cu
    constrain_relaxation .true.
atom 7.7487589500000000 5.9649974200000004 2.1089450599999999 Cu
    constrain_relaxation .true.
atom 11.6154422699999991 6.7105928200000005 4.2112810899999999 Cu
atom 6.4560369899999994 6.7098354300000000 4.2051667400000001 Cu
atom 9.0454503800000001 6.7105963700000002 4.2112711500000000 Cu
atom 9.0373696900000002 2.2362590899999999 4.2089023599999997 Cu
atom 3.8747425299999998 2.2362694500000000 4.2089068599999999 Cu
atom 6.4560468200000001 2.2348050599999998 4.2082940200000003 Cu
atom 10.3304719800000004 4.4756223200000003 4.2009788600000002 Cu
atom 5.1648852400000003 4.4744415699999998 4.2044097100000002 Cu
atom 7.7472984199999999 4.4744615899999998 4.2044280199999999 Cu
atom 1.2826739599999999 0.7430601900000000 6.3086999600000002 Cu
atom 3.8787040600000000 0.7430470400000000 6.3085682900000002 Cu
atom 6.4550083300000001 0.7557924200000000 6.3470167200000001 Cu
atom 2.5806371600000002 2.9869395600000002 6.3011067399999998 Cu
atom 5.1660469999999998 2.9836338100000002 6.3129642199999996 Cu
atom 7.7440643099999997 2.9835557499999998 6.3129151099999996 Cu
atom 3.8702889500000000 5.2187945899999999 6.3118494399999996 Cu
atom 6.4551281300000003 5.2180273000000001 6.3070956799999998 Cu
atom 9.0400146899999996 5.2188083199999999 6.3118467599999999 Cu
atom 7.7761296199999999 1.5157358900000000 8.4489672099999993 Cu
atom 2.5803612999999999 1.4928584000000000 8.3823036000000002 Cu
atom 9.0466610700000007 3.7126945600000001 8.4099635500000005 Cu
atom 3.8622372199999999 3.7128033000000000 8.4101754999999994 Cu
atom 5.1329748000000004 1.5160514500000000 8.4489257700000007 Cu
atom 6.4546558599999999 3.7299373000000000 8.4048553100000003 Cu
atom 10.3287751399999994 5.9678119100000000 8.4152094999999996 Cu
atom 5.1586822000000003 5.9638598299999996 8.4038132000000001 Cu
atom 7.7501282900000001 5.9642654500000001 8.4037293700000006 Cu
atom 5.1635650399999999 0.0227525100000000 10.4871802200000008 Cu
atom 6.4543173999999999 2.2435284400000000 10.5068543000000005 Cu
atom 10.3287278100000002 4.5440044100000003 10.5032382299999991 Cu
atom 5.1655104999999999 4.4565764400000001 10.4719798300000004 Cu
atom 7.7448042900000003 4.4580245500000002 10.4713697499999991 Cu
atom 7.7440463299999998 0.0219102400000000 10.4872509899999997 Cu
atom 6.4529836399999994 6.6578010299999999 10.4910413100000000 Cu
atom 1.3252168400000000 2.2414279100000001 10.6550692799999993 Cu
atom 3.8325816399999999 2.2420391300000002 10.6547908699999994 Cu
atom 0.0000000000000000 0.0000000000000000 20.6547908699999994 H
atom 0.4000000000000000 0.0000000000000000 20.6547908699999994 H
